(set-logic QF_S)
(declare-fun _var_0xINPUT_106242_() String)
(declare-fun __woorpje_diseq_pref0_() String)
(declare-fun __woorpje_diseq_suf_l0_() String)
(declare-fun __woorpje_diseq_suf_r0_() String)
(assert (=(str.++ _var_0xINPUT_106242_  "")(str.++ __woorpje_diseq_pref0_  "T" __woorpje_diseq_suf_l0_  "")) )
(assert (=(str.++  "GX0ldT2ayA" "")(str.++ __woorpje_diseq_pref0_  "A" __woorpje_diseq_suf_r0_  "")) )
(check-sat)
